Solving original (integer) problem with strategy gdp.hull_exact...
--- Job model.gms Start 02/14/26 19:34:12 52.2.0 d8e408be LEX-LEG x86 64bit/Linux
--- Applying:
    /package/gams/52.2/gmsprmun.txt
--- GAMS Parameters defined
    Input /local/scratch/a/sgusev/repos/k_means/data/gams_gurobi_gdp.hull_exact/no_mode/2026-02-14_19-34-12/original/model.gms
    Output /local/scratch/a/sgusev/repos/k_means/data/gams_gurobi_gdp.hull_exact/no_mode/2026-02-14_19-34-12/original/output.lst
    ScrDir /local/scratch/a/sgusev/repos/k_means/data/gams_gurobi_gdp.hull_exact/no_mode/2026-02-14_19-34-12/original/225a/
    SysDir /package/gams/52.2/
    CurDir /local/scratch/a/sgusev/repos/k_means/data/gams_gurobi_gdp.hull_exact/no_mode/2026-02-14_19-34-12/original/
    LogOption 3
    AppendLog 1
Licensee: David Bernal / SECQUOIA Research Group         G251008+0003Ac-GEN
          Purdue University, Davidson School of Chemical EngineeringDCE4838
          225a/gamslice.dat
          5a82958a-fbca-4a23
          node:66820903 mem:995 cores:48 ipport:42579 v:2                  
          Evaluation license: Not for commercial or production use
          The time-limited license stops working on : Jun 30, 2027
System information: 48 physical cores and 995 Gb physical memory detected
GAMS 52.2.0   Copyright (C) 1987-2025 GAMS Development. All rights reserved
--- Starting compilation
--- model.gms(3565) 2 Mb
--- $echo File /local/scratch/a/sgusev/repos/k_means/data/gams_gurobi_gdp.hull_exact/no_mode/2026-02-14_19-34-12/original/gurobi.opt
--- model.gms(5224) 2 Mb
--- Starting execution: elapsed 0:00:00.019
--- model.gms(3574) 3 Mb
--- Generating MINLP model GAMS_MODEL
--- model.gms(3578) 6 Mb
---   1,084 rows  509 columns  2,623 non-zeroes
---   1,680 nl-code  288 nl-non-zeroes
---   48 discrete-columns
--- Range statistics (absolute non-zero finite values)
--- RHS       [min, max] : [ 1.000E+00, 1.000E+00] - Zero values observed as well
--- Bound     [min, max] : [ 1.000E+00, 9.600E+01] - Zero values observed as well
--- Matrix    [min, max] : [ 1.000E+00, 9.600E+01] - Zero values observed as well
--- model.gms(3578) 4 Mb
--- Executing GUROBI (Solvelink=5): elapsed 0:00:00.025
Reading parameter(s) from "/local/scratch/a/sgusev/repos/k_means/data/gams_gurobi_gdp.hull_exact/no_mode/2026-02-14_19-34-12/original/gurobi.opt"
>>  NonConvex 2
>>  Threads 1
>>  MIPGap 1e-06
>>  MIPGapAbs 1e-10
>>  FeasibilityTol 1e-06
>>  OptimalityTol 1e-06
>>  IntFeasTol 1e-05
Finished reading from "/local/scratch/a/sgusev/repos/k_means/data/gams_gurobi_gdp.hull_exact/no_mode/2026-02-14_19-34-12/original/gurobi.opt"

... GRB_LICENSE_FILE = /local/scratch/a/sgusev/gurobi.lic

    Gurobi           52.2.0 d8e408be Dec 8, 2025           LEG x86 64bit/Linux    

... GAMS/Gurobi Link license.
... GMO Q Extraction (ThreePass): 0.00s

    Gurobi Optimizer version 13.0.0 build v13.0.0rc1 (linux64 - "Oracle Linux Server 9.7")
    
    CPU model: AMD EPYC 7643 48-Core Processor, instruction set [SSE2|AVX|AVX2]
    Thread count: 48 physical cores, 96 logical processors, using up to 1 threads
    
    Non-default parameters:
    TimeLimit  300
    MIPGap  1e-06
    LogToConsole  0
    NonConvex  2
    Threads  1
    
    Optimize a model with 1035 rows, 508 columns and 2322 nonzeros (Min)
    Model fingerprint: 0x5850b4cd
    Model has 12 linear objective coefficients
    Model has 48 quadratic constraints
    Variable types: 460 continuous, 48 integer (0 binary)
    Coefficient statistics:
      Matrix range     [1e+00, 1e+02]
      QMatrix range    [4e-02, 3e+00]
      Objective range  [1e+00, 1e+00]
      Bounds range     [1e+00, 1e+02]
      RHS range        [1e+00, 1e+00]
    Presolve removed 192 rows and 204 columns
    Presolve time: 0.01s
    Presolved: 1267 rows, 736 columns, 3454 nonzeros
    Presolved model has 192 quadratic constraint(s)
    Variable types: 688 continuous, 48 integer (48 binary)
    
    Root relaxation: objective 0.000000e+00, 338 iterations, 0.00 seconds (0.00 work units)
    
        Nodes    |    Current Node    |     Objective Bounds      |     Work
     Expl Unexpl |  Obj  Depth IntInf | Incumbent    BestBd   Gap | It/Node Time
    
    H    0     0                       9.7988753    0.00000   100%     -    0s
    *    0     0               0       9.7988753    0.00000   100%     -    0s
         0     0    0.00000    0   10    9.79888    0.00000   100%     -    0s
         0     0    0.00000    0   18    9.79888    0.00000   100%     -    0s
    H    0     0                       6.6480461    0.00000   100%     -    0s
         0     0    0.00000    0   22    6.64805    0.00000   100%     -    0s
         0     0    0.00000    0   26    6.64805    0.00000   100%     -    0s
         0     0    0.00000    0    5    6.64805    0.00000   100%     -    0s
         0     0    0.00000    0    5    6.64805    0.00000   100%     -    0s
         0     0    0.00000    0   20    6.64805    0.00000   100%     -    0s
         0     0    0.00000    0   12    6.64805    0.00000   100%     -    0s
         0     0    0.00000    0   16    6.64805    0.00000   100%     -    0s
         0     0    0.00000    0   14    6.64805    0.00000   100%     -    0s
         0     0    0.00000    0   16    6.64805    0.00000   100%     -    0s
         0     0    0.00000    0   14    6.64805    0.00000   100%     -    0s
         0     0    0.00000    0   14    6.64805    0.00000   100%     -    0s
         0     0    0.00000    0   14    6.64805    0.00000   100%     -    0s
         0     0    0.00000    0   20    6.64805    0.00000   100%     -    0s
         0     0    0.00000    0   12    6.64805    0.00000   100%     -    0s
         0     0    0.00000    0   18    6.64805    0.00000   100%     -    0s
         0     0    0.00000    0   16    6.64805    0.00000   100%     -    0s
         0     0    0.00000    0   20    6.64805    0.00000   100%     -    0s
         0     0    0.00000    0   18    6.64805    0.00000   100%     -    0s
         0     0    0.00000    0   19    6.64805    0.00000   100%     -    0s
         0     0    0.00000    0   12    6.64805    0.00000   100%     -    0s
         0     0    0.00000    0   12    6.64805    0.00000   100%     -    0s
         0     0    0.00000    0   12    6.64805    0.00000   100%     -    0s
         0     0    0.00000    0   15    6.64805    0.00000   100%     -    0s
         0     0    0.00000    0   10    6.64805    0.00000   100%     -    0s
         0     0    0.00000    0   16    6.64805    0.00000   100%     -    0s
         0     0    0.00000    0   14    6.64805    0.00000   100%     -    0s
         0     0    0.00000    0   18    6.64805    0.00000   100%     -    0s
         0     0    0.00000    0   17    6.64805    0.00000   100%     -    0s
         0     0    0.00000    0   19    6.64805    0.00000   100%     -    0s
         0     0    0.00000    0    6    6.64805    0.00000   100%     -    0s
         0     0    0.00000    0   16    6.64805    0.00000   100%     -    0s
         0     0    0.00000    0   16    6.64805    0.00000   100%     -    0s
         0     0    0.00000    0   14    6.64805    0.00000   100%     -    0s
         0     0    0.00000    0    8    6.64805    0.00000   100%     -    0s
         0     0    0.00000    0   16    6.64805    0.00000   100%     -    0s
         0     0    0.00000    0   16    6.64805    0.00000   100%     -    0s
         0     0    0.00000    0   14    6.64805    0.00000   100%     -    0s
         0     0    0.00000    0   12    6.64805    0.00000   100%     -    0s
         0     0    0.00000    0   12    6.64805    0.00000   100%     -    0s
         0     0    0.00000    0   12    6.64805    0.00000   100%     -    0s
         0     0    0.00000    0   12    6.64805    0.00000   100%     -    0s
         0     0    0.00000    0   12    6.64805    0.00000   100%     -    0s
         0     0    0.00000    0   16    6.64805    0.00000   100%     -    0s
         0     0    0.00000    0   14    6.64805    0.00000   100%     -    0s
         0     0    0.00000    0   11    6.64805    0.00000   100%     -    0s
         0     0    0.00000    0   11    6.64805    0.00000   100%     -    0s
         0     0    0.00000    0   20    6.64805    0.00000   100%     -    0s
         0     0    0.00000    0   10    6.64805    0.00000   100%     -    0s
         0     0    0.00000    0   13    6.64805    0.00000   100%     -    0s
         0     0    0.00000    0   13    6.64805    0.00000   100%     -    0s
         0     0    0.00000    0   23    6.64805    0.00000   100%     -    0s
         0     0    0.00000    0   16    6.64805    0.00000   100%     -    0s
         0     0    0.00000    0   16    6.64805    0.00000   100%     -    0s
         0     0    0.00000    0   10    6.64805    0.00000   100%     -    0s
         0     0    0.00000    0    8    6.64805    0.00000   100%     -    0s
         0     0    0.00000    0   20    6.64805    0.00000   100%     -    0s
         0     0    0.00000    0   20    6.64805    0.00000   100%     -    0s
         0     0    0.00000    0   18    6.64805    0.00000   100%     -    0s
         0     0    0.00000    0   10    6.64805    0.00000   100%     -    0s
         0     0    0.00000    0   20    6.64805    0.00000   100%     -    0s
         0     0    0.00000    0    4    6.64805    0.00000   100%     -    0s
         0     0    0.00000    0   19    6.64805    0.00000   100%     -    0s
         0     0    0.00000    0    8    6.64805    0.00000   100%     -    0s
         0     0    0.00000    0   12    6.64805    0.00000   100%     -    0s
         0     0    0.00000    0   10    6.64805    0.00000   100%     -    0s
         0     0    0.00000    0   16    6.64805    0.00000   100%     -    0s
         0     0    0.00000    0    8    6.64805    0.00000   100%     -    0s
         0     0    0.00000    0   12    6.64805    0.00000   100%     -    0s
         0     0    0.00000    0   12    6.64805    0.00000   100%     -    0s
         0     0    0.00000    0   16    6.64805    0.00000   100%     -    0s
         0     0    0.00000    0   16    6.64805    0.00000   100%     -    0s
         0     0    0.00000    0   16    6.64805    0.00000   100%     -    0s
         0     0    0.00000    0   14    6.64805    0.00000   100%     -    0s
         0     0    0.00000    0   16    6.64805    0.00000   100%     -    0s
         0     0    0.00000    0   12    6.64805    0.00000   100%     -    0s
         0     0    0.00000    0   12    6.64805    0.00000   100%     -    0s
         0     0    0.00000    0   12    6.64805    0.00000   100%     -    0s
         0     0    0.00000    0   14    6.64805    0.00000   100%     -    0s
         0     0    0.00000    0   14    6.64805    0.00000   100%     -    0s
         0     0    0.00000    0   14    6.64805    0.00000   100%     -    0s
         0     0    0.00000    0   14    6.64805    0.00000   100%     -    0s
         0     0    0.00000    0   12    6.64805    0.00000   100%     -    0s
         0     0    0.00000    0    8    6.64805    0.00000   100%     -    0s
         0     0    0.00000    0   14    6.64805    0.00000   100%     -    0s
         0     0    0.00000    0   14    6.64805    0.00000   100%     -    0s
         0     0    0.00000    0   18    6.64805    0.00000   100%     -    0s
         0     0    0.00000    0   10    6.64805    0.00000   100%     -    0s
         0     0    0.00000    0   14    6.64805    0.00000   100%     -    0s
         0     0    0.00000    0   14    6.64805    0.00000   100%     -    0s
         0     0    0.00000    0   16    6.64805    0.00000   100%     -    0s
         0     0    0.00000    0   10    6.64805    0.00000   100%     -    1s
         0     0    0.00000    0   18    6.64805    0.00000   100%     -    1s
         0     0    0.00000    0   17    6.64805    0.00000   100%     -    1s
         0     0    0.00000    0   20    6.64805    0.00000   100%     -    1s
         0     0    0.00000    0   10    6.64805    0.00000   100%     -    1s
         0     0    0.00000    0   16    6.64805    0.00000   100%     -    1s
         0     0    0.00000    0   10    6.64805    0.00000   100%     -    1s
         0     0    0.00000    0   17    6.64805    0.00000   100%     -    1s
         0     0    0.00000    0   10    6.64805    0.00000   100%     -    1s
         0     0    0.00000    0   18    6.64805    0.00000   100%     -    1s
         0     0    0.00000    0    6    6.64805    0.00000   100%     -    1s
         0     0    0.00000    0   16    6.64805    0.00000   100%     -    1s
         0     0    0.00000    0   14    6.64805    0.00000   100%     -    1s
         0     0    0.00000    0   18    6.64805    0.00000   100%     -    1s
         0     0    0.00000    0   16    6.64805    0.00000   100%     -    1s
         0     0    0.00000    0   18    6.64805    0.00000   100%     -    1s
         0     0    0.00000    0   16    6.64805    0.00000   100%     -    1s
         0     0    0.00000    0   16    6.64805    0.00000   100%     -    1s
         0     0    0.00000    0    7    6.64805    0.00000   100%     -    1s
         0     0    0.00000    0   20    6.64805    0.00000   100%     -    1s
         0     0    0.00000    0   12    6.64805    0.00000   100%     -    1s
         0     0    0.00000    0   18    6.64805    0.00000   100%     -    1s
         0     0    0.00000    0   16    6.64805    0.00000   100%     -    1s
         0     0    0.00000    0   16    6.64805    0.00000   100%     -    1s
         0     0    0.00000    0    9    6.64805    0.00000   100%     -    1s
         0     0    0.00000    0   12    6.64805    0.00000   100%     -    1s
         0     0    0.00000    0   12    6.64805    0.00000   100%     -    1s
         0     0    0.00000    0   12    6.64805    0.00000   100%     -    1s
         0     0    0.00000    0   12    6.64805    0.00000   100%     -    1s
         0     0    0.00000    0   18    6.64805    0.00000   100%     -    1s
         0     0    0.00000    0   14    6.64805    0.00000   100%     -    1s
         0     0    0.00000    0   10    6.64805    0.00000   100%     -    1s
         0     0    0.00000    0   10    6.64805    0.00000   100%     -    1s
         0     0    0.00000    0   18    6.64805    0.00000   100%     -    1s
         0     0    0.00000    0   12    6.64805    0.00000   100%     -    1s
         0     0    0.00000    0   17    6.64805    0.00000   100%     -    1s
         0     0    0.00000    0   14    6.64805    0.00000   100%     -    1s
         0     0    0.00000    0   21    6.64805    0.00000   100%     -    1s
         0     0    0.00000    0   18    6.64805    0.00000   100%     -    1s
         0     0    0.00000    0   18    6.64805    0.00000   100%     -    1s
         0     0    0.00000    0   18    6.64805    0.00000   100%     -    1s
         0     0    0.00000    0   19    6.64805    0.00000   100%     -    1s
         0     0    0.00000    0   16    6.64805    0.00000   100%     -    1s
         0     0    0.00000    0   19    6.64805    0.00000   100%     -    1s
         0     0    0.00000    0   10    6.64805    0.00000   100%     -    1s
         0     0    0.00000    0   18    6.64805    0.00000   100%     -    1s
         0     0    0.00000    0   16    6.64805    0.00000   100%     -    1s
         0     0    0.00000    0   19    6.64805    0.00000   100%     -    1s
         0     0    0.00000    0    8    6.64805    0.00000   100%     -    1s
         0     0    0.00000    0   14    6.64805    0.00000   100%     -    1s
         0     0    0.00000    0   10    6.64805    0.00000   100%     -    1s
         0     0    0.00000    0   14    6.64805    0.00000   100%     -    1s
         0     0    0.00000    0   10    6.64805    0.00000   100%     -    1s
         0     0    0.00000    0   20    6.64805    0.00000   100%     -    1s
         0     0    0.00000    0   16    6.64805    0.00000   100%     -    1s
         0     0    0.00000    0   16    6.64805    0.00000   100%     -    1s
         0     0    0.00000    0   16    6.64805    0.00000   100%     -    1s
         0     0    0.00000    0   18    6.64805    0.00000   100%     -    1s
         0     0    0.00000    0   14    6.64805    0.00000   100%     -    1s
         0     0    0.00000    0   12    6.64805    0.00000   100%     -    1s
         0     0    0.00000    0   12    6.64805    0.00000   100%     -    1s
         0     0    0.00000    0   14    6.64805    0.00000   100%     -    1s
         0     0    0.00000    0   14    6.64805    0.00000   100%     -    1s
         0     0    0.00000    0   12    6.64805    0.00000   100%     -    1s
         0     0    0.00000    0   12    6.64805    0.00000   100%     -    1s
         0     0    0.00000    0   16    6.64805    0.00000   100%     -    1s
         0     0    0.00000    0   14    6.64805    0.00000   100%     -    1s
         0     0    0.00000    0   18    6.64805    0.00000   100%     -    1s
         0     0    0.00000    0   16    6.64805    0.00000   100%     -    1s
         0     0    0.00000    0   18    6.64805    0.00000   100%     -    1s
         0     0    0.00000    0   16    6.64805    0.00000   100%     -    1s
         0     0    0.00000    0   18    6.64805    0.00000   100%     -    1s
         0     0    0.00000    0   12    6.64805    0.00000   100%     -    1s
         0     0    0.00000    0   14    6.64805    0.00000   100%     -    1s
         0     0    0.00000    0   14    6.64805    0.00000   100%     -    1s
         0     0    0.00000    0   12    6.64805    0.00000   100%     -    1s
         0     0    0.00000    0    8    6.64805    0.00000   100%     -    1s
         0     0    0.00000    0    8    6.64805    0.00000   100%     -    1s
         0     0    0.00000    0   17    6.64805    0.00000   100%     -    1s
         0     0    0.00000    0   11    6.64805    0.00000   100%     -    1s
         0     0    0.00000    0   10    6.64805    0.00000   100%     -    1s
         0     0    0.00000    0    2    6.64805    0.00000   100%     -    1s
         0     0    0.00000    0   18    6.64805    0.00000   100%     -    1s
         0     0    0.00000    0   12    6.64805    0.00000   100%     -    1s
         0     0    0.00000    0   16    6.64805    0.00000   100%     -    1s
         0     0    0.00000    0   16    6.64805    0.00000   100%     -    1s
         0     0    0.00000    0   20    6.64805    0.00000   100%     -    1s
         0     0    0.00000    0   18    6.64805    0.00000   100%     -    1s
         0     0    0.00000    0   18    6.64805    0.00000   100%     -    1s
         0     0    0.00000    0   14    6.64805    0.00000   100%     -    1s
         0     0    0.00000    0   16    6.64805    0.00000   100%     -    1s
         0     0    0.00000    0    6    6.64805    0.00000   100%     -    2s
         0     0    0.00000    0   16    6.64805    0.00000   100%     -    2s
         0     0    0.00000    0   16    6.64805    0.00000   100%     -    2s
         0     0    0.00000    0   20    6.64805    0.00000   100%     -    2s
         0     0    0.00000    0   14    6.64805    0.00000   100%     -    2s
         0     0    0.00000    0   18    6.64805    0.00000   100%     -    2s
         0     0    0.00000    0   18    6.64805    0.00000   100%     -    2s
         0     0    0.00000    0   16    6.64805    0.00000   100%     -    2s
         0     0    0.00000    0   10    6.64805    0.00000   100%     -    2s
         0     0    0.00000    0   12    6.64805    0.00000   100%     -    2s
         0     0    0.00000    0   10    6.64805    0.00000   100%     -    2s
         0     0    0.00000    0   12    6.64805    0.00000   100%     -    2s
         0     0    0.00000    0   12    6.64805    0.00000   100%     -    2s
         0     0    0.00000    0   18    6.64805    0.00000   100%     -    2s
         0     0    0.00000    0    8    6.64805    0.00000   100%     -    2s
         0     0    0.00000    0   16    6.64805    0.00000   100%     -    2s
         0     0    0.00000    0   12    6.64805    0.00000   100%     -    2s
         0     2    0.00000    0   14    6.64805    0.00000   100%     -    2s
    H   11    11                       6.6480460    0.00000   100%   120    2s
    H   42    42                       6.4712848    0.00000   100%   114    2s
    H   54    48                       6.0450129    0.00000   100%  98.1    2s
    H   54    41                       4.6116246    0.00000   100%  98.1    2s
    H  112    85                       4.6116246    0.00000   100%  94.5    2s
    H  212   157                       4.6116245    0.00000   100%   111    3s
    H  269   187                       4.1119848    0.00000   100%   110    3s
       330   219    0.00000    8   23    4.11198    0.00000   100%   104    5s
       406   270    0.85921   21   23    4.11198    0.00000   100%  84.7   10s
    H  423   265                       4.1119848    0.00000   100%   292   11s
    H  440   260                       4.1119848    0.00000   100%   296   12s
    H  509   260                       4.1119847    0.00000   100%   279   13s
    H  539   251                       4.1119847    0.00000   100%   272   14s
       586   257    0.00000   15   36    4.11198    0.00000   100%   267   15s
    H  823   303                       3.9617975    0.00000   100%   248   17s
    H  834   298                       3.9617974    0.00000   100%   246   17s
    H  835   288                       3.9617973    0.00000   100%   246   17s
    H  839   275                       3.9617973    0.00000   100%   246   17s
    H  841   266                       3.9617972    0.00000   100%   245   17s
    H  841   257                       3.9617972    0.00000   100%   245   17s
    H 1039   353                       3.9617972    0.01444   100%   238   19s
    H 1053   355                       3.9617972    0.01913   100%   237   19s
      1071   363    3.49416   29   16    3.96180    0.01913   100%   237   20s
    H 1083   367                       3.9617972    0.01913   100%   237   20s
    H 2000   598                       3.9373027    0.87173  77.9%   210   24s
      2200   650    2.96888   26   22    3.93730    0.95913  75.6%   204   25s
      3664   868    1.71707   23   27    3.93730    1.53317  61.1%   179   30s
      5195   973    2.27721   26   24    3.93730    1.90516  51.6%   165   35s
      6932   944    2.34111   20   19    3.93730    2.30784  41.4%   153   40s
    H 7723   921                       3.9373026    2.47046  37.3%   151   42s
    H 8200   852                       3.9373026    2.60018  34.0%   149   44s
      8540   788    3.15626   24   19    3.93730    2.71034  31.2%   147   45s
     10364   294    3.79590   25   16    3.93730    3.34401  15.1%   139   50s
    
    Cutting planes:
      MIR: 1
      Flow cover: 10
    
    Explored 10896 nodes (1564146 simplex iterations) in 51.33 seconds (55.99 work units)
    Thread count was 1 (of 96 available processors)
    
    Solution count 8: 3.9373 3.9618 4.11198 ... 9.79888
    
    Optimal solution found (tolerance 1.00e-06)
    Best objective 3.937302600430e+00, best bound 3.937302600430e+00, gap 0.0000%
    
    User-callback calls 11022, time in user-callback 0.00 sec

... Solving fixed model...

    Gurobi Optimizer version 13.0.0 build v13.0.0rc1 (linux64 - "Oracle Linux Server 9.7")
    
    CPU model: AMD EPYC 7643 48-Core Processor, instruction set [SSE2|AVX|AVX2]
    Thread count: 48 physical cores, 96 logical processors, using up to 1 threads
    
    Non-default parameters:
    TimeLimit  300
    MIPGap  1e-06
    LogToConsole  0
    NonConvex  2
    Threads  1
    
    Optimize a model with 1035 rows, 508 columns and 2322 nonzeros (Min)
    Model fingerprint: 0x6e635fb7
    Model has 12 linear objective coefficients
    Model has 48 quadratic constraints
    Coefficient statistics:
      Matrix range     [1e+00, 1e+02]
      QMatrix range    [4e-02, 3e+00]
      Objective range  [1e+00, 1e+00]
      Bounds range     [1e+00, 1e+02]
      RHS range        [1e+00, 1e+00]
    Presolve removed 1032 rows and 480 columns
    Presolve time: 0.00s
    Presolved: 72 rows, 84 columns, 179 nonzeros
    Presolved model has 12 second-order cone constraints
    Ordering time: 0.00s
    
    Barrier statistics:
     AA' NZ     : 5.880e+02
     Factor NZ  : 7.680e+02
     Factor Ops : 1.066e+04 (less than 1 second per iteration)
     Threads    : 1
    
                      Objective                Residual
    Iter       Primal          Dual         Primal    Dual     Compl     Time
       0   5.68959930e+02 -4.18171529e+02  9.75e+00 4.25e+00  1.30e+01     0s
       1   5.73936094e+01 -9.04942714e+01  1.07e-05 4.67e-06  1.16e+00     0s
       2   6.89708643e+00 -1.12231141e+01  1.84e-07 6.21e-07  1.43e-01     0s
       3   5.57265324e+00  8.51474131e-01  1.96e-10 3.64e-08  3.72e-02     0s
       4   4.16311582e+00  3.55807728e+00  6.33e-12 3.75e-09  4.76e-03     0s
       5   3.94571429e+00  3.89695695e+00  3.22e-13 3.65e-10  3.84e-04     0s
       6   3.93748351e+00  3.93450015e+00  2.12e-12 2.64e-11  2.35e-05     0s
       7   3.93730808e+00  3.93721771e+00  6.00e-12 7.06e-13  7.12e-07     0s
       8   3.93730376e+00  3.93729657e+00  7.77e-10 8.52e-13  5.66e-08     0s
       9   3.93730274e+00  3.93730025e+00  2.24e-09 5.49e-12  1.96e-08     0s
    
    Barrier solved model in 9 iterations and 0.00 seconds (0.00 work units)
    Optimal objective 3.93730274e+00
    
    
    User-callback calls 0, time in user-callback 0.00 sec
    Warning: to get QCP duals, please set parameter QCPDual to 1

--- Reading solution for model GAMS_MODEL
***
*** Solver did not provide marginals for model GAMS_MODEL
***
--- Executing after solve: elapsed 0:00:51.384
--- model.gms(3581) 4 Mb
--- model.gms(5224) 6 Mb
--- Putfile results /local/scratch/a/sgusev/repos/k_means/data/gams_gurobi_gdp.hull_exact/no_mode/2026-02-14_19-34-12/original/results.dat
--- Putfile statresults /local/scratch/a/sgusev/repos/k_means/data/gams_gurobi_gdp.hull_exact/no_mode/2026-02-14_19-34-12/original/resultsstat.dat
*** Status: Normal completion
--- Job model.gms Stop 02/14/26 19:35:04 elapsed 0:00:51.387
Original problem solved. Time taken: 51.96574568748474 seconds
Original objective value: 3.937302737530297
